(set-logic ALL)
(set-option :produce-models true)
(define-fun-rec toLower ((x String) (y String)) Bool 	(or (and (= x "") (= y "")) 		(and (not (= x "")) (not (= y "")) 			(let ((x_head (str.at x 0)) 				(y_head (str.at y 0)) 				(x_tail (str.substr x 1 (- (str.len x) 1))) 				(y_tail (str.substr y 1 (- (str.len y) 1)))) 			(and (= (str.to_code y_head) 				(ite (and (<= 65 (str.to_code x_head)) (<= (str.to_code x_head) 90)) 					(+ (str.to_code x_head) 32) 					(str.to_code x_head))) 				(toLower x_tail y_tail))))))
(declare-fun sym205 () String)
(declare-fun sym328 () String)
(declare-fun sym725 () String)
(declare-fun sym605 () String)
(declare-fun sym409 () String)
(declare-fun sym681 () String)
(declare-fun sym363 () String)
(declare-fun sym485 () String)
(declare-fun sym289 () String)
(declare-fun sym445 () String)
(declare-fun sym160 () String)
(declare-fun sym338 () String)
(declare-fun sym615 () String)
(declare-fun sym419 () String)
(declare-fun sym175 () String)
(declare-fun sym373 () String)
(declare-fun sym571 () String)
(declare-fun sym254 () String)
(declare-fun sym299 () String)
(declare-fun sym651 () String)
(declare-fun sym135 () String)
(declare-fun sym499 () String)
(declare-fun sym455 () String)
(declare-fun sym533 () String)
(declare-fun sym215 () String)
(declare-fun sym691 () String)
(declare-fun sym20 () String)
(declare-fun sym547 () String)
(declare-fun sym625 () String)
(declare-fun sym429 () String)
(declare-fun sym705 () String)
(declare-fun sym509 () String)
(declare-fun sym264 () String)
(declare-fun sym661 () String)
(declare-fun sym465 () String)
(declare-fun sym389 () String)
(declare-fun sym225 () String)
(declare-fun sym185 () String)
(declare-fun sym581 () String)
(declare-fun sym557 () String)
(declare-fun sym239 () String)
(declare-fun sym635 () String)
(declare-fun sym715 () String)
(declare-fun sym519 () String)
(declare-fun sym671 () String)
(declare-fun sym353 () String)
(declare-fun sym475 () String)
(declare-fun sym113 () String)
(declare-fun sym399 () String)
(declare-fun sym279 () String)
(declare-fun sym313 () String)
(declare-fun sym150 () String)
(declare-fun sym591 () String)
(declare-fun sym195 () String)
(define-fun Alphabet () RegLan 
	(re.* (re.union (str.to_re "A") (str.to_re "B") (str.to_re "C") (str.to_re "D") (str.to_re "E") (str.to_re "F") (str.to_re "G") (str.to_re "H") (str.to_re "I") (str.to_re "J") (str.to_re "K") (str.to_re "L") (str.to_re "M") (str.to_re "N") (str.to_re "O") (str.to_re "P") (str.to_re "Q") (str.to_re "R") (str.to_re "S") (str.to_re "T") (str.to_re "U") (str.to_re "V") (str.to_re "W") (str.to_re "X") (str.to_re "Y") (str.to_re "Z") (str.to_re "a") (str.to_re "b") (str.to_re "c") (str.to_re "d") (str.to_re "e") (str.to_re "f") (str.to_re "g") (str.to_re "h") (str.to_re "i") (str.to_re "j") (str.to_re "k") (str.to_re "l") (str.to_re "m") (str.to_re "n") (str.to_re "o") (str.to_re "p") (str.to_re "q") (str.to_re "r") (str.to_re "s") (str.to_re "t") (str.to_re "u") (str.to_re "v") (str.to_re "w") (str.to_re "x") (str.to_re "y") (str.to_re "z") ))
)
(declare-fun L80  () String)
(assert (toLower sym691  L80 ))
(declare-fun L84  () String)
(assert (toLower sym338  L84 ))
(declare-fun L2  () String)
(assert (toLower sym113  L2 ))
(declare-fun L92  () String)
(assert (toLower sym289  L92 ))
(declare-fun L88  () String)
(assert (toLower sym635  L88 ))
(declare-fun L6  () String)
(assert (toLower sym20  L6 ))
(declare-fun L76  () String)
(assert (toLower sym671  L76 ))
(declare-fun L20  () String)
(assert (toLower "option"  L20 ))
(declare-fun L96  () String)
(assert (toLower sym279  L96 ))
(declare-fun L100  () String)
(assert (toLower sym429  L100 ))
(declare-fun L73  () String)
(assert (toLower sym455  L73 ))
(declare-fun L61  () String)
(assert (toLower sym399  L61 ))
(declare-fun L1  () String)
(assert (toLower "name"  L1 ))
(declare-fun L33  () String)
(assert (toLower sym509  L33 ))
(declare-fun L65  () String)
(assert (toLower sym215  L65 ))
(declare-fun L21  () String)
(assert (toLower sym135  L21 ))
(declare-fun L53  () String)
(assert (toLower sym160  L53 ))
(declare-fun L41  () String)
(assert (toLower sym195  L41 ))
(declare-fun L37  () String)
(assert (toLower sym225  L37 ))
(declare-fun L104  () String)
(assert (toLower sym475  L104 ))
(declare-fun L69  () String)
(assert (toLower sym571  L69 ))
(declare-fun L25  () String)
(assert (toLower sym254  L25 ))
(declare-fun L9  () String)
(assert (toLower sym705  L9 ))
(declare-fun L57  () String)
(assert (toLower sym299  L57 ))
(declare-fun L13  () String)
(assert (toLower sym465  L13 ))
(declare-fun L45  () String)
(assert (toLower sym419  L45 ))
(declare-fun L29  () String)
(assert (toLower sym175  L29 ))
(declare-fun L17  () String)
(assert (toLower sym264  L17 ))
(declare-fun L49  () String)
(assert (toLower sym715  L49 ))
(declare-fun L90  () String)
(assert (toLower sym150  L90 ))
(declare-fun L0  () String)
(assert (toLower sym533  L0 ))
(declare-fun L94  () String)
(assert (toLower sym547  L94 ))
(declare-fun L82  () String)
(assert (toLower sym651  L82 ))
(declare-fun L4  () String)
(assert (toLower sym499  L4 ))
(declare-fun L98  () String)
(assert (toLower sym681  L98 ))
(declare-fun L86  () String)
(assert (toLower sym239  L86 ))
(declare-fun L8  () String)
(assert (toLower "description"  L8 ))
(declare-fun L58  () String)
(assert (toLower "field"  L58 ))
(declare-fun L14  () String)
(assert (toLower "type"  L14 ))
(declare-fun L46  () String)
(assert (toLower "length"  L46 ))
(declare-fun L78  () String)
(assert (toLower sym363  L78 ))
(declare-fun L38  () String)
(assert (toLower "table"  L38 ))
(declare-fun L102  () String)
(assert (toLower sym445  L102 ))
(declare-fun L51  () String)
(assert (toLower sym409  L51 ))
(declare-fun L71  () String)
(assert (toLower sym519  L71 ))
(declare-fun L3  () String)
(assert (toLower "database"  L3 ))
(declare-fun L55  () String)
(assert (toLower sym328  L55 ))
(declare-fun L11  () String)
(assert (toLower sym313  L11 ))
(declare-fun L43  () String)
(assert (toLower sym373  L43 ))
(declare-fun L31  () String)
(assert (toLower sym185  L31 ))
(declare-fun L63  () String)
(assert (toLower sym661  L63 ))
(declare-fun L7  () String)
(assert (toLower sym615  L7 ))
(declare-fun L59  () String)
(assert (toLower sym725  L59 ))
(declare-fun L15  () String)
(assert (toLower sym389  L15 ))
(declare-fun L47  () String)
(assert (toLower sym581  L47 ))
(declare-fun L35  () String)
(assert (toLower sym353  L35 ))
(declare-fun L106  () String)
(assert (toLower sym625  L106 ))
(declare-fun L67  () String)
(assert (toLower sym605  L67 ))
(declare-fun L23  () String)
(assert (toLower sym557  L23 ))
(declare-fun L19  () String)
(assert (toLower sym485  L19 ))
(declare-fun L39  () String)
(assert (toLower sym591  L39 ))
(declare-fun L27  () String)
(assert (toLower sym205  L27 ))

(assert (str.in_re sym195 Alphabet))
(assert (str.in_re sym591 Alphabet))
(assert (str.in_re sym150 Alphabet))
(assert (str.in_re sym313 Alphabet))
(assert (str.in_re sym279 Alphabet))
(assert (str.in_re sym399 Alphabet))
(assert (str.in_re sym113 Alphabet))
(assert (str.in_re sym475 Alphabet))
(assert (str.in_re sym353 Alphabet))
(assert (str.in_re sym671 Alphabet))
(assert (str.in_re sym519 Alphabet))
(assert (str.in_re sym715 Alphabet))
(assert (str.in_re sym635 Alphabet))
(assert (str.in_re sym239 Alphabet))
(assert (str.in_re sym557 Alphabet))
(assert (str.in_re sym581 Alphabet))
(assert (str.in_re sym185 Alphabet))
(assert (str.in_re sym225 Alphabet))
(assert (str.in_re sym389 Alphabet))
(assert (str.in_re sym465 Alphabet))
(assert (str.in_re sym661 Alphabet))
(assert (str.in_re sym264 Alphabet))
(assert (str.in_re sym509 Alphabet))
(assert (str.in_re sym705 Alphabet))
(assert (str.in_re sym429 Alphabet))
(assert (str.in_re sym625 Alphabet))
(assert (str.in_re sym547 Alphabet))
(assert (str.in_re sym20 Alphabet))
(assert (str.in_re sym691 Alphabet))
(assert (str.in_re sym215 Alphabet))
(assert (str.in_re sym533 Alphabet))
(assert (str.in_re sym455 Alphabet))
(assert (str.in_re sym499 Alphabet))
(assert (str.in_re sym135 Alphabet))
(assert (str.in_re sym651 Alphabet))
(assert (str.in_re sym299 Alphabet))
(assert (str.in_re sym254 Alphabet))
(assert (str.in_re sym571 Alphabet))
(assert (str.in_re sym373 Alphabet))
(assert (str.in_re sym175 Alphabet))
(assert (str.in_re sym419 Alphabet))
(assert (str.in_re sym615 Alphabet))
(assert (str.in_re sym338 Alphabet))
(assert (str.in_re sym160 Alphabet))
(assert (str.in_re sym445 Alphabet))
(assert (str.in_re sym289 Alphabet))
(assert (str.in_re sym485 Alphabet))
(assert (str.in_re sym363 Alphabet))
(assert (str.in_re sym681 Alphabet))
(assert (str.in_re sym409 Alphabet))
(assert (str.in_re sym605 Alphabet))
(assert (str.in_re sym725 Alphabet))
(assert (str.in_re sym328 Alphabet))
(assert (str.in_re sym205 Alphabet))
(assert (= L0 L1 ))
(assert (= L2 L3 ))
(assert (not (= L4 L1 )))
(assert (not (= L6 "sql" )))
(assert (not (= L7 L8 )))
(assert (not (= L9 L1 )))
(assert (= L11 L1 ))
(assert (not (= L13 L14 )))
(assert (not (= L15 L1 )))
(assert (= L17 L8 ))
(assert (= L19 L20 ))
(assert (= L21 L1 ))
(assert (= L23 L8 ))
(assert (not (= L25 L1 )))
(assert (not (= L27 L1 )))
(assert (not (= L29 L1 )))
(assert (not (= L31 L8 )))
(assert (not (= L33 L8 )))
(assert (not (= L35 L1 )))
(assert (= L37 L38 ))
(assert (= L39 L14 ))
(assert (not (= L41 L38 )))
(assert (= L43 L14 ))
(assert (not (= L45 L46 )))
(assert (not (= L47 L8 )))
(assert (not (= L49 L8 )))
(assert (not (= L51 L14 )))
(assert (= L53 L8 ))
(assert (not (= L55 L1 )))
(assert (= L57 L58 ))
(assert (not (= L59 L58 )))
(assert (not (= L61 L8 )))
(assert (not (= L63 L8 )))
(assert (not (= L65 L8 )))
(assert (not (= L67 L1 )))
(assert (not (= L69 L1 )))
(assert (= L71 L58 ))
(assert (not (= L73 L8 )))
(assert (= L6 "html" ))
(assert (not (= L76 L14 )))
(assert (not (= L78 L8 )))
(assert (= L80 L20 ))
(assert (not (= L82 L1 )))
(assert (= L84 L8 ))
(assert (= L86 L1 ))
(assert (= L88 L46 ))
(assert (not (= L90 L1 )))
(assert (not (= L92 L8 )))
(assert (not (= L94 L1 )))
(assert (not (= L96 L1 )))
(assert (not (= L98 L46 )))
(assert (= L100 L20 ))
(assert (not (= L102 L1 )))
(assert (not (= L104 L46 )))
(assert (not (= L106 L14 )))
(check-sat)
(get-model)
(exit)
